p cnf 9 25
-3 5 9 0
-1 6 4 0
-9 9 9 0
9 9 -1 0
-4 6 6 0
-7 -7 -4 0
-3 -4 -8 0
4 -6 -4 0
1 -6 8 0
-1 3 -8 0
-2 -9 4 0
-6 9 1 0
8 -2 9 0
-9 -3 -8 0
-5 -8 2 0
-2 -5 -7 0
-4 1 8 0
-1 6 -6 0
4 8 -1 0
-7 -9 7 0
2 6 2 0
4 9 -4 0
-8 2 -5 0
9 7 4 0
8 -7 -9 0
